c --- [ banner ] -------------------------------------------------------------
c 
c CaDiCaL Radically Simplified CDCL SAT Solver
c Copyright (c) 2016-2021 A. Biere, M. Fleury, N. Froleyks
c 
c Version 1.5.2 a5f15211db36c3956764e18194dd5bd63bf3b5e6
c g++ (GCC) 9.3.0 -Wall -Wextra -O3 -DNDEBUG
c Fri Oct 21 01:27:37 EDT 2022 Linux gra-login3 3.10.0-1160.66.1.el7.x86_64 x86_64
c 
c --- [ limit ] --------------------------------------------------------------
c 
c setting conflict limit to 200000 conflicts (due to '200000')
c 
c --- [ parsing input ] ------------------------------------------------------
c 
c reading DIMACS file from '33.cubes471.adj'
c opening file to read '33.cubes471.adj'
c found 'p cnf 6160 1595471' header
c parsed 1595471 clauses in 19.42 seconds process time
c closing file '33.cubes471.adj'
c after reading 1457566750 bytes 1390.0 MB
c 
c --- [ options ] ------------------------------------------------------------
c 
c all options are set to their default value
c 
c --- [ solving ] ------------------------------------------------------------
c 
c time measured in process time since initialization
c 
c  seconds    reductions  redundant   irredundant
c          MB     restarts       trail       variables
c            level   conflicts       glue         remaining
c 
c * 19.42 1362  0 0   0    0    0  0% 0 1595422 2383 39%
c { 20.81 1421  0 0   0    0    0  0% 0 1595422 2383 39%
c i 22.53 1464 270 0   1   67   61 29% 6 1595422 2382 39%
c i 23.77 1473 155 0   9  129  111 25% 7 1595422 2381 39%
c i 24.39 1480 146 0  12  146  126 26% 9 1595422 2380 39%
c i 24.40 1480 145 0  12  147  126 26% 9 1595422 2379 39%
c i 24.86 1488 142 0  17  163  140 26% 17 1595422 2378 39%
c i 25.64 1492 130 0  27  198  172 26% 22 1595422 2377 39%
c i 25.67 1492 129 0  28  200  173 26% 22 1595422 2376 39%
c i 25.70 1492 127 0  29  204  176 27% 22 1595422 2375 39%
c i 25.95 1494 117 0  34  225  192 27% 21 1595422 2374 39%
c i 25.99 1493 116 0  34  229  194 27% 21 1595422 2373 39%
c i 26.00 1494 115 0  35  231  195 27% 21 1595422 2372 39%
c i 26.08 1494 114 0  35  234  196 27% 21 1595422 2371 38%
c i 26.11 1494 111 0  35  245  205 27% 21 1595422 2370 38%
c i 26.12 1494 110 0  35  246  205 27% 21 1595422 2369 38%
c i 26.15 1494 109 0  35  251  209 27% 21 1595422 2368 38%
c i 26.48 1496 109 0  40  279  233 27% 23 1595422 2367 38%
c i 26.50 1496 108 0  41  282  235 27% 23 1595422 2366 38%
c i 26.51 1496 108 0  42  284  236 27% 23 1595422 2365 38%
c 
c  seconds     reductions  redundant   irredundant
c          MB      restarts       trail       variables
c             level   conflicts       glue         remaining
c 
c - 31.02 1391 108 1  48  304  255 27% 24 266584 2365 38%
c i 31.34 1391 109 1  53  338  277 27% 24 266584 2363 38%
c i 31.50 1391 108 1  59  361  299 27% 24 266584 2362 38%
c i 31.50 1391 107 1  59  363  300 27% 24 266584 2361 38%
c i 31.60 1391 106 1  64  381  313 27% 26 266584 2360 38%
c i 31.60 1391 105 1  64  382  313 27% 26 266584 2359 38%
c i 31.61 1391 104 1  65  387  317 27% 26 266584 2358 38%
c i 31.70 1391 102 1  69  399  326 27% 25 266584 2357 38%
c i 31.90 1391 101 1  74  433  348 27% 26 266584 2356 38%
c i 32.05 1391 95 1  81  479  388 27% 26 266584 2355 38%
c i 32.15 1391 91 1  81  513  417 27% 26 266584 2354 38%
c i 32.44 1391 87 1  86  592  481 27% 26 266584 2353 38%
c i 32.47 1391 85 1  86  618  500 28% 26 266584 2352 38%
c i 32.59 1391 86 1  86  635  513 28% 26 266584 2350 38%
c i 32.67 1392 86 1  87  655  520 28% 27 266584 2349 38%
c i 32.73 1392 86 1  89  665  527 28% 27 266584 2348 38%
c i 32.86 1392 85 1  94  691  544 27% 26 266584 2347 38%
c i 33.01 1392 90 1  95  720  557 27% 26 266584 2340 38%
c i 33.14 1392 89 1  99  742  577 27% 27 266584 2339 38%
c i 33.33 1392 85 1 101  798  624 28% 26 266584 2337 38%
c 
c  seconds    reductions  redundant   irredundant
c          MB     restarts       trail       variables
c            level   conflicts       glue         remaining
c 
c i 33.47 1392 81 1 101  849  664 28% 25 266584 2336 38%
c i 33.49 1392 81 1 101  858  672 28% 25 266584 2335 38%
c i 33.71 1392 75 1 106  967  754 28% 25 266584 2334 38%
c } 34.01 1392 75 1 114 1000  785 28% 25 266584 2334 38%
c [ 34.01 1392  0 1 114 1000  785  0% 0 266584 2334 38%
c O 34.04 1392 30 1 114 1002  787 21% 2 266584 2334 38%
c i 34.13 1392 19 1 114 1015  799 29% 10 266584 2333 38%
c i 34.22 1392 22 1 114 1063  842 33% 18 266584 2332 38%
c i 34.25 1392 23 1 114 1087  856 33% 19 266584 2331 38%
c i 34.27 1392 24 1 114 1103  869 33% 20 266584 2330 38%
c i 34.27 1392 24 1 114 1109  874 33% 20 266584 2329 38%
c i 34.31 1392 23 1 114 1149  906 33% 19 266584 2328 38%
c - 34.82 1505 23 2 114 1161  813 32% 19 266355 2328 38%
c i 34.84 1505 23 2 114 1162  813 32% 18 266355 2327 38%
c i 34.96 1505 21 2 114 1226  870 32% 18 266355 2326 38%
c i 35.01 1505 21 2 114 1249  889 32% 17 266355 2325 38%
c i 35.11 1505 22 2 114 1345  969 32% 18 266355 2324 38%
c ] 35.12 1505 22 2 114 1365  985 32% 18 266355 2324 38%
c 1 35.12 1505 22 2 114 1365  985 32% 18 266355 2324 38%
c 
c --- [ writing output ] -----------------------------------------------------
c 
c writing simplified CNF to DIMACS file 'simp/33.cubes471.adj.simp1'
c * 35.12 1505 22 2 114 1365  985 32% 18 266355 2324 38%
c opening file to write 'simp/33.cubes471.adj.simp1'
c writing 'p cnf 6160 266343' header
c closing file 'simp/33.cubes471.adj.simp1'
c after writing 128494814 bytes 122.5 MB
c wrote 266343 clauses in 0.98 seconds process time
c 
c --- [ writing extension ] --------------------------------------------------
c 
c writing extension stack to 'simp/33.cubes471.adj.ext1'
c opening file to write 'simp/33.cubes471.adj.ext1'
c closing file 'simp/33.cubes471.adj.ext1'
c after writing 10306 bytes 0.0 MB
c wrote 692 witnesses in 0.00 seconds process time
c 
c --- [ result ] -------------------------------------------------------------
c 
s SATISFIABLE
c 
c --- [ run-time profiling ] -------------------------------------------------
c 
c process time taken by individual solving procedures
c (percentage relative to process time for solving)
c 
c        19.42  123.72% parse
c        15.70  100.00% search
c        13.20   84.07% unstable
c         1.38    8.82% lucky
c         1.12    7.10% stable
c         0.00    0.00% simplify
c   =================================
c        15.70   43.49% solve
c 
c last line shows process time for solving
c (percentage relative to total process time)
c 
c --- [ statistics ] ---------------------------------------------------------
c 
c chronological:               470        34.43 %  of conflicts
c conflicts:                  1365        86.95    per second
c decisions:                 17820      1135.12    per second
c fixed:                       692        11.23 %  of all variables
c learned:                    1301        95.31 %  per conflict
c learned_lits:             190110       100.00 %  learned literals
c minimized:                     0         0.00 %  learned literals
c shrunken:                  91804        48.29 %  learned literals
c minishrunken:              23534        12.38 %  learned literals
c propagations:             272481         0.02 M  per second
c reduced:                     102         7.47 %  per conflict
c rephased:                      1      1365.00    interval
c restarts:                    114        11.97    interval
c stabilizing:                   1        26.74 %  of conflicts
c subsumed:                    162         0.01 %  of all clauses
c 
c seconds are measured in process time for solving
c 
c --- [ resources ] ----------------------------------------------------------
c 
c total process time since initialization:        36.10    seconds
c total real time since initialization:           36.20    seconds
c maximum resident set size of process:         1504.76    MB
c 
c --- [ shutting down ] ------------------------------------------------------
c 
c exit 10
WARNING! DIMACS header mismatch: wrong number of variables.
============================[ Problem Statistics ]=============================
|                                                                             |
|  Number of variables:          6120                                         |
|  Number of clauses:          266343                                         |
|  Parse time:                   1.74 s                                       |
|  Simplification time:          0.03 s                                       |
|                                                                             |
============================[ Search Statistics ]====================================================
| Conflicts |          ORIGINAL         |          LEARNT          | Num Sols |      SUBGRAPHS      |
|           |    Vars  Clauses Literals |    Limit  Clauses Lit/Cl |          | Canonical Noncanon. |
=====================================================================================================
|       100 |    6025   266343 28122081 |     2000       97     37 |        0 |        19         0 |
|       251 |    6020   266344 28122100 |     2000      243     74 |        0 |        35         1 |
|       585 |    6017   266453 28124389 |     2000      574     57 |        0 |       107       110 |
|       991 |    6008   266522 28125941 |     2000      971     69 |        0 |       147       179 |
|      1707 |    5996   266732 28130700 |     2000     1675     68 |        0 |       239       389 |
|      2673 |    5982   266939 28135347 |     3581     1647     38 |        0 |       328       596 |
|      4254 |    5975   267381 28143496 |     3581     3221     55 |        0 |       459      1038 |
|      6169 |    5972   267588 28149317 |     4987     3353     52 |        0 |       557      1245 |
|      9025 |    5972   267882 28158573 |     6300     3725     52 |        0 |       683      1539 |
|     13497 |    5972   268510 28173457 |     7552     5049     52 |        0 |       900      2167 |
|     19809 |    5972   269056 28186270 |     8777     7586     69 |        0 |      1266      2713 |
|     29449 |    5972   270047 28205756 |    11199     7848     49 |        0 |      1653      3704 |
|     43280 |    5972   270904 28220255 |    13602     9882     68 |        0 |      1947      4561 |
|     65040 |    5972   273203 28266053 |    17204     9444     45 |        0 |      2773      6860 |
|     96432 |    5972   275403 28309420 |    20817    13249     49 |        0 |      3652      9060 |
|    145230 |    5972   280412 28396470 |    25613    16843     58 |        0 |      5952     14069 |
|    214214 |    5972   283544 28452040 |    31607    15821     38 |        0 |      8019     17369 |
|    340538 |    5972   311342 28868218 |    38814    38352     59 |        0 |     13553     45167 |
|    511995 |    5972   335010 29212182 |    48411    37806     59 |        0 |     23289     68835 |
|    788689 |    5972   390021 30039768 |    60409    45498     57 |        0 |     37542    123846 |
|   1180230 |    5972   449037 30967633 |    73618    71848     80 |        0 |     56584    182862 |
|   1774552 |    5972   544571 32313772 |    91615    51167     37 |        0 |     87908    278396 |
=====================================================================================================
Number of solutions   : 0
Canonical subgraphs   : 132580         (48 /sec)
          order  3    : 1              (200000 /sec)
          order  4    : 1              (500000 /sec)
          order  5    : 1              (250000 /sec)
          order  6    : 1              (52632 /sec)
          order  7    : 2              (9950 /sec)
          order  8    : 6              (2618 /sec)
          order  9    : 17             (606 /sec)
          order 10    : 86             (243 /sec)
          order 11    : 643            (120 /sec)
          order 12    : 4878           (81 /sec)
          order 13    : 20740          (62 /sec)
          order 14    : 61001          (50 /sec)
          order 15    : 26299          (44 /sec)
          order 16    : 8985           (36 /sec)
          order 17    : 5678           (34 /sec)
          order 18    : 2803           (32 /sec)
          order 19    : 729            (34 /sec)
          order 20    : 356            (38 /sec)
          order 21    : 353            (39 /sec)
          order 22    : 0              (-nan /sec)
Noncanonical subgraphs: 438372         (589 /sec)
          order  3    : 0              (-nan /sec)
          order  4    : 0              (-nan /sec)
          order  5    : 0              (-nan /sec)
          order  6    : 0              (-nan /sec)
          order  7    : 0              (-nan /sec)
          order  8    : 0              (-nan /sec)
          order  9    : 0              (-nan /sec)
          order 10    : 0              (-nan /sec)
          order 11    : 0              (-nan /sec)
          order 12    : 0              (-nan /sec)
          order 13    : 85042          (1465 /sec)
          order 14    : 277480         (625 /sec)
          order 15    : 72810          (331 /sec)
          order 16    : 2584           (203 /sec)
          order 17    : 42             (540 /sec)
          order 18    : 30             (1208 /sec)
          order 19    : 2              (83333 /sec)
          order 20    : 0              (-nan /sec)
          order 21    : 0              (-nan /sec)
Canonicity checking   : 2770.1 s
Noncanonicity checking: 744.854 s
Total canonicity time : 3514.95 s
database reductions   : 89
restarts              : 4350
conflicts             : 2552167        (484 /sec)
decisions             : 3477054        (0.00 % random) (660 /sec)
propagations          : 359970208      (68285 /sec)
conflict literals     : 261888209      (53.81 % deleted)
actual reward         : 0.094145
Memory used           : 477.00 MB
CPU time              : 5271.61 s

UNSATISFIABLE
